5 5
6 2 4 14 5 15 2 2 10 4 6 3 3 3 5 12 2 2 4 2 3 3 11 1 17 4 3 1 4 3 5 3 11 1 13 5 12 4 10 2 19
5 2 5 16 4 6 4 3 5 2 14 4 8 1 2 4 4 13 5 11 1 10 3 3 2 5 9 2 17 4 4 9 2 7 3 18 5 6
5 4 5 5 1 19 4 15 2 13 2 2 7 1 5 1 2 2 2 4 11 5 13 2 3 19 2 12
5 2 5 20 2 5 1 3 19 5 3 9 2 18 4 7 1 19 5 13 5 5 10 2 3 1 2 3 11 4 16 4 4 19 5 17 1 17 3 14
6 1 1 10 1 3 20 2 5 11 1 2 4 1 8 5 6 4 9 2 9 5 5 3 2 17 1 16 3 20 4 18 5 3 16 4 14 2 9 5 4 1 19